30
1 0 7
2 1 1
3 0 2
4 1 1
5 0 8
5 2 9
5 3 10
6 0 10
6 3 7
6 4 1
7 0 3
7 1 10
7 3 6
7 4 2
7 6 3
8 0 10
8 2 9
8 5 8
8 7 4
9 2 2
9 4 2
9 6 2
9 7 4
10 2 10
10 4 2
10 5 1
10 6 5
10 9 9
11 1 7
11 2 8
11 3 9
11 6 1
11 9 5
12 0 5
12 2 8
12 3 6
12 4 9
12 6 2
12 7 9
12 11 2
13 1 10
13 3 7
13 7 7
13 8 3
13 10 7
13 11 3
14 0 6
14 1 5
14 2 8
14 4 8
14 5 4
14 6 2
14 7 1
14 9 2
14 10 6
14 11 1
14 12 10
14 13 2
15 2 2
15 3 5
15 4 10
15 7 5
15 8 4
15 10 6
15 14 2
16 0 1
16 1 4
16 4 6
16 6 10
16 10 3
16 12 2
16 14 8
17 3 1
17 4 3
17 7 3
17 8 9
17 9 6
17 10 2
17 11 5
17 12 10
17 13 4
17 14 7
17 15 8
17 16 4
18 0 2
18 2 2
18 7 6
18 9 7
18 11 3
18 14 6
19 1 6
19 5 7
19 7 3
19 10 9
19 11 7
19 12 4
19 13 3
19 14 10
19 15 8
19 16 1
19 17 5
19 18 1
20 0 10
20 1 7
20 3 6
20 4 4
20 5 6
20 10 5
20 13 8
20 14 10
20 15 6
20 17 2
20 18 5
21 0 9
21 5 4
21 6 5
21 10 5
21 11 2
21 12 6
21 13 4
21 14 3
21 15 1
21 16 2
21 17 9
21 20 6
22 1 6
22 2 8
22 6 5
22 7 6
22 10 9
22 11 9
22 12 8
22 13 7
22 15 5
22 16 1
23 1 4
23 2 4
23 3 3
23 4 2
23 5 10
23 6 3
23 8 4
23 9 1
23 10 2
23 11 7
23 12 3
23 13 9
23 15 8
23 18 4
23 19 9
23 21 7
23 22 4
24 0 2
24 1 5
24 2 6
24 3 10
24 6 2
24 7 2
24 8 3
24 9 1
24 10 7
24 11 10
24 13 10
24 17 5
24 18 5
24 19 5
24 21 2
24 23 6
25 2 9
25 4 2
25 10 8
25 11 3
25 12 4
25 15 9
25 21 6
26 0 2
26 2 8
26 3 3
26 4 3
26 5 3
26 6 7
26 7 5
26 8 6
26 9 6
26 10 6
26 11 6
26 15 7
26 16 4
26 22 1
26 23 7
26 24 9
27 0 10
27 4 5
27 7 1
27 8 6
27 11 2
27 17 6
27 21 5
27 22 8
27 23 2
27 25 3
28 0 4
28 2 6
28 4 6
28 7 6
28 8 6
28 9 2
28 10 2
28 11 8
28 12 7
28 16 6
28 18 6
28 20 5
28 25 9
29 6 3
29 8 10
29 9 2
29 10 9
29 13 9
29 14 6
29 15 7
29 19 7
29 24 10
29 25 4
